(set-logic UF)
(declare-sort Set 0)
(declare-sort Elem 0)
(declare-fun member (Elem Set) Bool)
(declare-fun subset (Set Set) Bool)
(declare-fun seteq (Set Set) Bool)
(declare-fun union (Set Set) Set)
(declare-fun intersection (Set Set) Set)
(declare-fun difference (Set Set) Set)
(declare-fun a () Set)
(declare-fun b () Set)
(assert (or (member (choice ((?x Elem)) (not (or (not (member ?x (difference a (difference a b)))) (member ?x (intersection a b))))) (difference a b)) (not (and (member (choice ((?x Elem)) (not (or (not (member ?x (difference a (difference a b)))) (member ?x (intersection a b))))) a) (not (member (choice ((?x Elem)) (not (or (not (member ?x (difference a (difference a b)))) (member ?x (intersection a b))))) b)))) (not (= (member (choice ((?x Elem)) (not (or (not (member ?x (difference a (difference a b)))) (member ?x (intersection a b))))) (difference a b)) (and (member (choice ((?x Elem)) (not (or (not (member ?x (difference a (difference a b)))) (member ?x (intersection a b))))) a) (not (member (choice ((?x Elem)) (not (or (not (member ?x (difference a (difference a b)))) (member ?x (intersection a b))))) b)))))))
(assert (= (member (choice ((?x Elem)) (not (or (not (member ?x (difference a (difference a b)))) (member ?x (intersection a b))))) (difference a b)) (and (member (choice ((?x Elem)) (not (or (not (member ?x (difference a (difference a b)))) (member ?x (intersection a b))))) a) (not (member (choice ((?x Elem)) (not (or (not (member ?x (difference a (difference a b)))) (member ?x (intersection a b))))) b)))))
(assert (and (member (choice ((?x Elem)) (not (or (not (member ?x (difference a (difference a b)))) (member ?x (intersection a b))))) a) (not (member (choice ((?x Elem)) (not (or (not (member ?x (difference a (difference a b)))) (member ?x (intersection a b))))) b))))
(assert (not (member (choice ((?x Elem)) (not (or (not (member ?x (difference a (difference a b)))) (member ?x (intersection a b))))) (difference a b))))
(check-sat)
(exit)
